;; sequence(s): A19757
;; terms: 1 18 217 2190 19981 170898 1398097 11075670 85654261 650280378 4865931577 35994162750 263799130141 1918854559458 13871649322657 99770067275430 714554190919621 5099624595840138 36287658424563337 257574399980365710
;; small program: loop((loop((loop(2 * ((x + x) + x), y, 1) + (2 * ((x + x) + x))) + x, y, 1) + (2 * (x + x))) + x, x, 1)
;; fast program: loop(((loop2(x * y, y, x div 2, loop(1 + (2 + 2), x mod 2, 1), (2 * (2 * (2 + (2 + 2)))) + 1) + loop2(x * y, y, x, 1, 1 + (2 + (2 + 2)))) div 2) - loop2(x * y, y, x, 1, 2 + (2 + 2)), 1, 2 + x)
(set-logic UFNIA)
(define-fun divf ((a Int) (b Int)) Int (ite (< 0 b) (div a b) (div (- a) (- b))))
(define-fun modf ((a Int) (b Int)) Int (ite (< 0 b) (mod a b) (- (mod (- a) (- b)))))
(declare-fun f2 (Int) Int)
(declare-fun g2 (Int Int) Int)
(declare-fun h2 () Int)
(declare-fun u2 (Int Int) Int)
(declare-fun v2 (Int Int) Int)
(declare-fun f1 (Int Int) Int)
(declare-fun g1 (Int Int) Int)
(declare-fun h1 () Int)
(declare-fun u1 (Int Int) Int)
(declare-fun v1 (Int Int) Int)
(declare-fun f0 (Int Int) Int)
(declare-fun g0 (Int) Int)
(declare-fun h0 () Int)
(declare-fun u0 (Int Int) Int)
(declare-fun v0 (Int) Int)
(declare-fun small (Int) Int)
(declare-fun f4 (Int Int) Int)
(declare-fun g4 (Int Int) Int)
(declare-fun h4 (Int) Int)
(declare-fun f5 () Int)
(declare-fun g5 (Int) Int)
(declare-fun h5 () Int)
(declare-fun u5 (Int Int) Int)
(declare-fun v5 (Int) Int)
(declare-fun i4 (Int) Int)
(declare-fun j4 () Int)
(declare-fun u4 (Int Int Int) Int)
(declare-fun v4 (Int Int Int) Int)
(declare-fun w4 (Int) Int)
(declare-fun f6 (Int Int) Int)
(declare-fun g6 (Int Int) Int)
(declare-fun h6 (Int) Int)
(declare-fun i6 () Int)
(declare-fun j6 () Int)
(declare-fun u6 (Int Int Int) Int)
(declare-fun v6 (Int Int Int) Int)
(declare-fun w6 (Int) Int)
(declare-fun f7 (Int Int) Int)
(declare-fun g7 (Int Int) Int)
(declare-fun h7 (Int) Int)
(declare-fun i7 () Int)
(declare-fun j7 () Int)
(declare-fun u7 (Int Int Int) Int)
(declare-fun v7 (Int Int Int) Int)
(declare-fun w7 (Int) Int)
(declare-fun f3 (Int) Int)
(declare-fun g3 () Int)
(declare-fun h3 (Int) Int)
(declare-fun u3 (Int Int) Int)
(declare-fun v3 (Int) Int)
(declare-fun fast (Int) Int)
(assert (forall ((x Int)) (= (f2 x) (* 2 (+ (+ x x) x)))))
(assert (forall ((x Int) (y Int)) (= (g2 x y) y)))
(assert (= h2 1))
(assert (forall ((x Int) (y Int)) (= (u2 x y) (ite (<= x 0) y (f2 (u2 (- x 1) y))))))
(assert (forall ((x Int) (y Int)) (= (v2 x y) (u2 (g2 x y) h2))))
(assert (forall ((x Int) (y Int)) (= (f1 x y) (+ (+ (v2 x y) (* 2 (+ (+ x x) x))) x))))
(assert (forall ((x Int) (y Int)) (= (g1 x y) y)))
(assert (= h1 1))
(assert (forall ((x Int) (y Int)) (= (u1 x y) (ite (<= x 0) y (f1 (u1 (- x 1) y) x)))))
(assert (forall ((x Int) (y Int)) (= (v1 x y) (u1 (g1 x y) h1))))
(assert (forall ((x Int) (y Int)) (= (f0 x y) (+ (+ (v1 x y) (* 2 (+ x x))) x))))
(assert (forall ((x Int)) (= (g0 x) x)))
(assert (= h0 1))
(assert (forall ((x Int) (y Int)) (= (u0 x y) (ite (<= x 0) y (f0 (u0 (- x 1) y) x)))))
(assert (forall ((x Int)) (= (v0 x) (u0 (g0 x) h0))))
(assert (forall ((x Int)) (= (small x) (v0 x))))
(assert (forall ((x Int) (y Int)) (= (f4 x y) (* x y))))
(assert (forall ((x Int) (y Int)) (= (g4 x y) y)))
(assert (forall ((x Int)) (= (h4 x) (divf x 2))))
(assert (= f5 (+ 1 (+ 2 2))))
(assert (forall ((x Int)) (= (g5 x) (modf x 2))))
(assert (= h5 1))
(assert (forall ((x Int) (y Int)) (= (u5 x y) (ite (<= x 0) y f5))))
(assert (forall ((x Int)) (= (v5 x) (u5 (g5 x) h5))))
(assert (forall ((x Int)) (= (i4 x) (v5 x))))
(assert (= j4 (+ (* 2 (* 2 (+ 2 (+ 2 2)))) 1)))
(assert (forall ((x Int) (y Int) (z Int)) (= (u4 x y z) (ite (<= x 0) y (f4 (u4 (- x 1) y z) (v4 (- x 1) y z))))))
(assert (forall ((x Int) (y Int) (z Int)) (= (v4 x y z) (ite (<= x 0) z (g4 (u4 (- x 1) y z) (v4 (- x 1) y z))))))
(assert (forall ((x Int)) (= (w4 x) (u4 (h4 x) (i4 x) j4))))
(assert (forall ((x Int) (y Int)) (= (f6 x y) (* x y))))
(assert (forall ((x Int) (y Int)) (= (g6 x y) y)))
(assert (forall ((x Int)) (= (h6 x) x)))
(assert (= i6 1))
(assert (= j6 (+ 1 (+ 2 (+ 2 2)))))
(assert (forall ((x Int) (y Int) (z Int)) (= (u6 x y z) (ite (<= x 0) y (f6 (u6 (- x 1) y z) (v6 (- x 1) y z))))))
(assert (forall ((x Int) (y Int) (z Int)) (= (v6 x y z) (ite (<= x 0) z (g6 (u6 (- x 1) y z) (v6 (- x 1) y z))))))
(assert (forall ((x Int)) (= (w6 x) (u6 (h6 x) i6 j6))))
(assert (forall ((x Int) (y Int)) (= (f7 x y) (* x y))))
(assert (forall ((x Int) (y Int)) (= (g7 x y) y)))
(assert (forall ((x Int)) (= (h7 x) x)))
(assert (= i7 1))
(assert (= j7 (+ 2 (+ 2 2))))
(assert (forall ((x Int) (y Int) (z Int)) (= (u7 x y z) (ite (<= x 0) y (f7 (u7 (- x 1) y z) (v7 (- x 1) y z))))))
(assert (forall ((x Int) (y Int) (z Int)) (= (v7 x y z) (ite (<= x 0) z (g7 (u7 (- x 1) y z) (v7 (- x 1) y z))))))
(assert (forall ((x Int)) (= (w7 x) (u7 (h7 x) i7 j7))))
(assert (forall ((x Int)) (= (f3 x) (- (divf (+ (w4 x) (w6 x)) 2) (w7 x)))))
(assert (= g3 1))
(assert (forall ((x Int)) (= (h3 x) (+ 2 x))))
(assert (forall ((x Int) (y Int)) (= (u3 x y) (ite (<= x 0) y (f3 (u3 (- x 1) y))))))
(assert (forall ((x Int)) (= (v3 x) (u3 g3 (h3 x)))))
(assert (forall ((x Int)) (= (fast x) (v3 x))))
(assert (exists ((c Int)) (and (>= c 0) (not (= (small c) (fast c))))))
(check-sat)
